! CH3CH2COOH Optimization, IR spectrum, and energy

%nprocshared=2
%chk=test.chk
%mem=2gb

# B3LYP SVP Optimization(VeryTight) Freq(NoRaman)

nPrOH

0 1
 C                 -6.06732671    0.79913632    0.04083327
 H                 -5.64783828   -0.18377270   -0.01226392
 H                 -5.86012507    1.32491762   -0.86774887
 H                 -7.12607769    0.72812186    0.17832257
 C                 -5.44548202    1.55926618    1.22705069
 H                 -4.38673104    1.63028064    1.08956139
 H                 -5.86497045    2.54217520    1.28014789
 C                 -5.74369746    0.80253422    2.53472966
 H                 -5.85396584   -0.26171235    2.52376893
 O                 -5.85769821    1.43580963    3.61618084

 1 2 1.0 3 1.0 4 1.0 5 1.0
 2
 3
 4
 5 6 1.0 7 1.0 8 1.0
 6
 7
 8 9 1.0 10 2.0
 9
 10

--LINK1--
%nprocshared=2
%chk=test.chk
%mem=2gb

# MP2 TZVP SCF(Tight) Geom(Checkpoint) Guess(Read)

nPrOH Energy

0 1

